(set-info :smt-lib-version 2.6)
(set-info :category "crafted")
(set-logic QF_FFA)
(define-sort FF0 () (_ FiniteField 52435875175126190479447740508185965837690552500527637822603658699938581184513))
(declare-fun is_zero_n67_alt () FF0)
(declare-fun mul_n70_alt () FF0)
(declare-fun mul_n12_alt () FF0)
(declare-fun is_zero_n59_alt () FF0)
(declare-fun mul_n68_alt () FF0)
(declare-fun c_n4_alt () FF0)
(declare-fun is_zero_n48_alt () FF0)
(declare-fun mul_n39_alt () FF0)
(declare-fun mul_n42_alt () FF0)
(declare-fun is_zero_n77_alt () FF0)
(declare-fun mul_n80_alt () FF0)
(declare-fun mul_n19_alt () FF0)
(declare-fun mul_n57_alt () FF0)
(declare-fun mul_n28_alt () FF0)
(declare-fun h_n5_alt () FF0)
(declare-fun mul_n69_alt () FF0)
(declare-fun mul_n11_alt () FF0)
(declare-fun mul_n43_alt () FF0)
(declare-fun mul_n78_alt () FF0)
(declare-fun is_zero_n17_alt () FF0)
(declare-fun mul_n23_alt () FF0)
(declare-fun mul_n64_alt () FF0)
(declare-fun return_n7_alt () FF0)
(declare-fun is_zero_inv_n81_alt () FF0)
(declare-fun is_zero_n56_alt () FF0)
(declare-fun is_zero_n36_alt () FF0)
(declare-fun mul_n79_alt () FF0)
(declare-fun mul_n29_alt () FF0)
(declare-fun mul_n73_alt () FF0)
(declare-fun mul_n34_alt () FF0)
(declare-fun is_zero_n33_alt () FF0)
(declare-fun mul_n25_alt () FF0)
(declare-fun mul_n54_alt () FF0)
(declare-fun mul_n60_alt () FF0)
(declare-fun mul_n63_alt () FF0)
(declare-fun g_n8_alt () FF0)
(declare-fun is_zero_n75_alt () FF0)
(declare-fun mul_n46_alt () FF0)
(declare-fun mul_n26_alt () FF0)
(declare-fun is_zero_n72_alt () FF0)
(declare-fun is_zero_inv_n76_alt () FF0)
(declare-fun mul_n38_alt () FF0)
(declare-fun mul_n44_alt () FF0)
(declare-fun is_zero_inv_n74_alt () FF0)
(declare-fun mul_n30_alt () FF0)
(declare-fun mul_n45_alt () FF0)
(declare-fun mul_n53_alt () FF0)
(declare-fun is_zero_inv_n71_alt () FF0)
(declare-fun mul_n52_alt () FF0)
(declare-fun mul_n41_alt () FF0)
(declare-fun mul_n50_alt () FF0)
(declare-fun mul_n27_alt () FF0)
(declare-fun is_zero_n62_alt () FF0)
(declare-fun mul_n65_alt () FF0)
(declare-fun mul_n49_alt () FF0)
(declare-fun mul_n20_alt () FF0)
(declare-fun is_zero_inv_n66_alt () FF0)
(declare-fun mul_n51_alt () FF0)
(declare-fun is_zero_inv_n61_alt () FF0)
(declare-fun is_zero_inv_n58_alt () FF0)
(declare-fun mul_n18_alt () FF0)
(declare-fun d_n3_alt () FF0)
(declare-fun mul_n31_alt () FF0)
(declare-fun mul_n37_alt () FF0)
(declare-fun is_zero_inv_n55_alt () FF0)
(declare-fun mul_n10_alt () FF0)
(declare-fun mul_n40_alt () FF0)
(declare-fun mul_n13_alt () FF0)
(declare-fun is_zero_inv_n47_alt () FF0)
(declare-fun mul_n24_alt () FF0)
(declare-fun a_n0_alt () FF0)
(declare-fun mul_n15_alt () FF0)
(declare-fun is_zero_inv_n35_alt () FF0)
(declare-fun e_n2_alt () FF0)
(declare-fun is_zero_inv_n32_alt () FF0)
(declare-fun b_n6_alt () FF0)
(declare-fun is_zero_n22_alt () FF0)
(declare-fun is_zero_inv_n21_alt () FF0)
(declare-fun f_n1_alt () FF0)
(declare-fun is_zero_inv_n16_alt () FF0)
(declare-fun mul_n14_alt () FF0)
(declare-fun mul_n9_alt () FF0)
(declare-fun is_zero_n67 () FF0)
(declare-fun mul_n70 () FF0)
(declare-fun mul_n12 () FF0)
(declare-fun is_zero_n59 () FF0)
(declare-fun mul_n68 () FF0)
(declare-fun c_n4 () FF0)
(declare-fun is_zero_n48 () FF0)
(declare-fun mul_n39 () FF0)
(declare-fun mul_n42 () FF0)
(declare-fun is_zero_n77 () FF0)
(declare-fun mul_n80 () FF0)
(declare-fun mul_n19 () FF0)
(declare-fun mul_n57 () FF0)
(declare-fun mul_n28 () FF0)
(declare-fun h_n5 () FF0)
(declare-fun mul_n69 () FF0)
(declare-fun mul_n11 () FF0)
(declare-fun mul_n43 () FF0)
(declare-fun mul_n78 () FF0)
(declare-fun is_zero_n17 () FF0)
(declare-fun mul_n23 () FF0)
(declare-fun mul_n64 () FF0)
(declare-fun return_n7 () FF0)
(declare-fun is_zero_inv_n81 () FF0)
(declare-fun is_zero_n56 () FF0)
(declare-fun is_zero_n36 () FF0)
(declare-fun mul_n79 () FF0)
(declare-fun mul_n29 () FF0)
(declare-fun mul_n73 () FF0)
(declare-fun mul_n34 () FF0)
(declare-fun is_zero_n33 () FF0)
(declare-fun mul_n25 () FF0)
(declare-fun mul_n54 () FF0)
(declare-fun mul_n60 () FF0)
(declare-fun mul_n63 () FF0)
(declare-fun g_n8 () FF0)
(declare-fun is_zero_n75 () FF0)
(declare-fun mul_n46 () FF0)
(declare-fun mul_n26 () FF0)
(declare-fun is_zero_n72 () FF0)
(declare-fun is_zero_inv_n76 () FF0)
(declare-fun mul_n38 () FF0)
(declare-fun mul_n44 () FF0)
(declare-fun is_zero_inv_n74 () FF0)
(declare-fun mul_n30 () FF0)
(declare-fun mul_n45 () FF0)
(declare-fun mul_n53 () FF0)
(declare-fun is_zero_inv_n71 () FF0)
(declare-fun mul_n52 () FF0)
(declare-fun mul_n41 () FF0)
(declare-fun mul_n50 () FF0)
(declare-fun mul_n27 () FF0)
(declare-fun is_zero_n62 () FF0)
(declare-fun mul_n65 () FF0)
(declare-fun mul_n49 () FF0)
(declare-fun mul_n20 () FF0)
(declare-fun is_zero_inv_n66 () FF0)
(declare-fun mul_n51 () FF0)
(declare-fun is_zero_inv_n61 () FF0)
(declare-fun is_zero_inv_n58 () FF0)
(declare-fun mul_n18 () FF0)
(declare-fun d_n3 () FF0)
(declare-fun mul_n31 () FF0)
(declare-fun mul_n37 () FF0)
(declare-fun is_zero_inv_n55 () FF0)
(declare-fun mul_n10 () FF0)
(declare-fun mul_n40 () FF0)
(declare-fun mul_n13 () FF0)
(declare-fun is_zero_inv_n47 () FF0)
(declare-fun mul_n24 () FF0)
(declare-fun a_n0 () FF0)
(declare-fun mul_n15 () FF0)
(declare-fun is_zero_inv_n35 () FF0)
(declare-fun e_n2 () FF0)
(declare-fun is_zero_inv_n32 () FF0)
(declare-fun b_n6 () FF0)
(declare-fun is_zero_n22 () FF0)
(declare-fun is_zero_inv_n21 () FF0)
(declare-fun f_n1 () FF0)
(declare-fun is_zero_inv_n16 () FF0)
(declare-fun mul_n14 () FF0)
(declare-fun mul_n9 () FF0)
(assert 
  (let ((let0 (as ff0 FF0)))
  (let ((let1 (as ff2 FF0)))
  (let ((let2 is_zero_n67_alt))
  (let ((let3 mul_n70_alt))
  (let ((let4 mul_n12_alt))
  (let ((let5 is_zero_n59_alt))
  (let ((let6 mul_n68_alt))
  (let ((let7 (as ff52435875175126190479447740508185965837690552500527637822603658699938581184512 FF0)))
  (let ((let8 c_n4_alt))
  (let ((let9 (ff.mul let8 let7)))
  (let ((let10 is_zero_n48_alt))
  (let ((let11 mul_n39_alt))
  (let ((let12 (ff.mul let11 let7)))
  (let ((let13 mul_n42_alt))
  (let ((let14 is_zero_n77_alt))
  (let ((let15 mul_n80_alt))
  (let ((let16 mul_n19_alt))
  (let ((let17 mul_n57_alt))
  (let ((let18 mul_n28_alt))
  (let ((let19 (ff.mul let18 let7)))
  (let ((let20 h_n5_alt))
  (let ((let21 mul_n69_alt))
  (let ((let22 mul_n11_alt))
  (let ((let23 (ff.mul let22 let7)))
  (let ((let24 mul_n43_alt))
  (let ((let25 mul_n78_alt))
  (let ((let26 is_zero_n17_alt))
  (let ((let27 (ff.mul let26 let7)))
  (let ((let28 mul_n23_alt))
  (let ((let29 (ff.mul let28 let7)))
  (let ((let30 mul_n64_alt))
  (let ((let31 (ff.mul let30 let7)))
  (let ((let32 (ff.add let31 let29 let27 let25 let24 let23 let21 let20 let19 let17 let16 let15 let14 let13 let12 let10 let9 let6 let5 let4 let3 let2 let1)))
  (let ((let33 (as ff1 FF0)))
  (let ((let34 return_n7_alt))
  (let ((let35 (ff.mul let34 let7)))
  (let ((let36 (ff.add let35 let33)))
  (let ((let37 (ff.mul let36 let32)))
  (let ((let38 (= let37 let0)))
  (let ((let39 is_zero_inv_n81_alt))
  (let ((let40 (ff.mul let39 let32)))
  (let ((let41 (= let40 let34)))
  (let ((let42 (ff.mul let16 let7)))
  (let ((let43 (ff.mul let13 let7)))
  (let ((let44 is_zero_n56_alt))
  (let ((let45 (ff.add let44 let43 let26 let42 let7)))
  (let ((let46 is_zero_n36_alt))
  (let ((let47 mul_n79_alt))
  (let ((let48 mul_n29_alt))
  (let ((let49 (ff.mul let48 let7)))
  (let ((let50 (ff.add let49 let47 let46 let28 let7)))
  (let ((let51 (ff.mul let50 let45)))
  (let ((let52 (= let51 let15)))
  (let ((let53 (ff.add let48 let29 let33)))
  (let ((let54 (as ff52435875175126190479447740508185965837690552500527637822603658699938581184511 FF0)))
  (let ((let55 (ff.mul let46 let54)))
  (let ((let56 (ff.add let55 let1)))
  (let ((let57 (ff.mul let56 let53)))
  (let ((let58 (= let57 let47)))
  (let ((let59 mul_n73_alt))
  (let ((let60 mul_n34_alt))
  (let ((let61 (ff.mul let60 let7)))
  (let ((let62 (ff.add let31 let10 let61 let29 let11 let59)))
  (let ((let63 is_zero_n33_alt))
  (let ((let64 (ff.mul let63 let7)))
  (let ((let65 (ff.add let64 let33)))
  (let ((let66 (ff.mul let65 let62)))
  (let ((let67 (= let66 let25)))
  (let ((let68 (as ff5 FF0)))
  (let ((let69 mul_n25_alt))
  (let ((let70 mul_n54_alt))
  (let ((let71 mul_n60_alt))
  (let ((let72 (ff.mul let71 let7)))
  (let ((let73 mul_n63_alt))
  (let ((let74 g_n8_alt))
  (let ((let75 (ff.mul let74 let7)))
  (let ((let76 is_zero_n75_alt))
  (let ((let77 (ff.mul let76 let7)))
  (let ((let78 mul_n46_alt))
  (let ((let79 (ff.mul let78 let7)))
  (let ((let80 mul_n26_alt))
  (let ((let81 (ff.mul let80 let7)))
  (let ((let82 is_zero_n72_alt))
  (let ((let83 (ff.mul let82 let7)))
  (let ((let84 (ff.add let17 let83 let81 let9 let79 let77 let23 let20 let75 let73 let72 let4 let70 let69 let68)))
  (let ((let85 (ff.mul let14 let84)))
  (let ((let86 (= let85 let0)))
  (let ((let87 (ff.mul let14 let7)))
  (let ((let88 (ff.add let87 let33)))
  (let ((let89 is_zero_inv_n76_alt))
  (let ((let90 (ff.mul let89 let84)))
  (let ((let91 (= let90 let88)))
  (let ((let92 mul_n38_alt))
  (let ((let93 (ff.mul let59 let7)))
  (let ((let94 mul_n44_alt))
  (let ((let95 (ff.mul let94 let7)))
  (let ((let96 (ff.mul let10 let7)))
  (let ((let97 (ff.add let30 let96 let43 let28 let11 let26 let60 let95 let93 let92 let42)))
  (let ((let98 (ff.mul let76 let97)))
  (let ((let99 (= let98 let0)))
  (let ((let100 (ff.add let77 let33)))
  (let ((let101 is_zero_inv_n74_alt))
  (let ((let102 (ff.mul let101 let97)))
  (let ((let103 (= let102 let100)))
  (let ((let104 (ff.mul let28 let1)))
  (let ((let105 (ff.mul let10 let54)))
  (let ((let106 (ff.mul let30 let1)))
  (let ((let107 (ff.add let106 let105 let104)))
  (let ((let108 (ff.mul let107 let60)))
  (let ((let109 (= let108 let59)))
  (let ((let110 (as ff3 FF0)))
  (let ((let111 (ff.mul let24 let7)))
  (let ((let112 mul_n30_alt))
  (let ((let113 mul_n45_alt))
  (let ((let114 (ff.mul let113 let7)))
  (let ((let115 mul_n53_alt))
  (let ((let116 (ff.add let115 let114 let27 let112 let111 let110)))
  (let ((let117 (ff.mul let82 let116)))
  (let ((let118 (= let117 let0)))
  (let ((let119 (ff.add let83 let33)))
  (let ((let120 is_zero_inv_n71_alt))
  (let ((let121 (ff.mul let120 let116)))
  (let ((let122 (= let121 let119)))
  (let ((let123 mul_n52_alt))
  (let ((let124 (ff.mul let123 let7)))
  (let ((let125 (ff.add let124 let111 let33)))
  (let ((let126 mul_n41_alt))
  (let ((let127 (ff.mul let126 let7)))
  (let ((let128 (ff.add let127 let33)))
  (let ((let129 (ff.mul let128 let125)))
  (let ((let130 (= let129 let3)))
  (let ((let131 (ff.mul let5 let7)))
  (let ((let132 (ff.add let131 let33)))
  (let ((let133 (ff.mul let107 let132)))
  (let ((let134 (= let133 let21)))
  (let ((let135 (ff.mul let4 let7)))
  (let ((let136 (ff.mul let20 let7)))
  (let ((let137 (ff.add let136 let18 let135 let8 let22)))
  (let ((let138 (ff.mul let17 let54)))
  (let ((let139 (ff.add let138 let1)))
  (let ((let140 (ff.mul let139 let137)))
  (let ((let141 (= let140 let6)))
  (let ((let142 (ff.mul let94 let54)))
  (let ((let143 mul_n50_alt))
  (let ((let144 mul_n27_alt))
  (let ((let145 (ff.mul let144 let7)))
  (let ((let146 is_zero_n62_alt))
  (let ((let147 (ff.mul let146 let1)))
  (let ((let148 mul_n65_alt))
  (let ((let149 (ff.mul let148 let7)))
  (let ((let150 (ff.mul let13 let54)))
  (let ((let151 (ff.mul let16 let54)))
  (let ((let152 mul_n49_alt))
  (let ((let153 (ff.mul let152 let7)))
  (let ((let154 (ff.mul let26 let1)))
  (let ((let155 mul_n20_alt))
  (let ((let156 (ff.add let81 let155 let154 let153 let23 let20 let69 let151 let150 let9 let149 let147 let145 let143 let142 let4 let1)))
  (let ((let157 (ff.mul let2 let156)))
  (let ((let158 (= let157 let0)))
  (let ((let159 (ff.mul let2 let7)))
  (let ((let160 (ff.add let159 let33)))
  (let ((let161 is_zero_inv_n66_alt))
  (let ((let162 (ff.mul let161 let156)))
  (let ((let163 (= let162 let160)))
  (let ((let164 (ff.mul let73 let7)))
  (let ((let165 (ff.add let43 let164 let95 let26 let42)))
  (let ((let166 (ff.add let30 let96 let28)))
  (let ((let167 (ff.mul let166 let165)))
  (let ((let168 (= let167 let148)))
  (let ((let169 (ff.add let29 let33)))
  (let ((let170 (ff.mul let10 let1)))
  (let ((let171 (ff.mul let170 let169)))
  (let ((let172 (= let171 let30)))
  (let ((let173 (ff.add let20 let81 let4 let69 let9 let23 let33)))
  (let ((let174 mul_n51_alt))
  (let ((let175 (ff.mul let174 let7)))
  (let ((let176 (ff.add let175 let33)))
  (let ((let177 (ff.mul let176 let173)))
  (let ((let178 (= let177 let73)))
  (let ((let179 (as ff4 FF0)))
  (let ((let180 (ff.mul let69 let7)))
  (let ((let181 (ff.mul let143 let7)))
  (let ((let182 (ff.mul let155 let7)))
  (let ((let183 (ff.add let80 let8 let182 let152 let22 let131 let136 let60 let181 let71 let180 let127 let135 let179)))
  (let ((let184 (ff.mul let146 let183)))
  (let ((let185 (= let184 let0)))
  (let ((let186 (ff.mul let146 let7)))
  (let ((let187 (ff.add let186 let33)))
  (let ((let188 is_zero_inv_n61_alt))
  (let ((let189 (ff.mul let188 let183)))
  (let ((let190 (= let189 let187)))
  (let ((let191 (ff.mul let115 let7)))
  (let ((let192 (ff.add let191 let20 let81 let4 let69 let9 let23 let33)))
  (let ((let193 (ff.mul let53 let192)))
  (let ((let194 (= let193 let71)))
  (let ((let195 (ff.mul let92 let7)))
  (let ((let196 (ff.mul let17 let7)))
  (let ((let197 (ff.add let44 let196 let195 let175 let110)))
  (let ((let198 is_zero_inv_n58_alt))
  (let ((let199 (ff.mul let198 let197)))
  (let ((let200 (= let199 let132)))
  (let ((let201 mul_n18_alt))
  (let ((let202 (ff.add let114 let33)))
  (let ((let203 (ff.mul let202 let201)))
  (let ((let204 (= let203 let17)))
  (let ((let205 d_n3_alt))
  (let ((let206 (ff.mul let205 let1)))
  (let ((let207 mul_n31_alt))
  (let ((let208 (ff.mul let207 let54)))
  (let ((let209 mul_n37_alt))
  (let ((let210 (ff.mul let112 let54)))
  (let ((let211 (ff.add let114 let78 let24 let210 let115 let209 let208 let70 let206 let110)))
  (let ((let212 (ff.mul let44 let211)))
  (let ((let213 (= let212 let0)))
  (let ((let214 (ff.mul let44 let7)))
  (let ((let215 (ff.add let214 let33)))
  (let ((let216 is_zero_inv_n55_alt))
  (let ((let217 (ff.mul let216 let211)))
  (let ((let218 (= let217 let215)))
  (let ((let219 (ff.add let27 let33)))
  (let ((let220 (ff.mul let155 let219)))
  (let ((let221 (= let220 let70)))
  (let ((let222 (ff.mul let201 let7)))
  (let ((let223 (ff.add let222 let33)))
  (let ((let224 (ff.mul let223 let123)))
  (let ((let225 (= let224 let115)))
  (let ((let226 (ff.add let20 let19 let4 let9 let23 let33)))
  (let ((let227 (ff.add let27 let13 let16 let33)))
  (let ((let228 (ff.mul let227 let226)))
  (let ((let229 (= let228 let123)))
  (let ((let230 mul_n10_alt))
  (let ((let231 (ff.mul let112 let7)))
  (let ((let232 (ff.add let231 let33)))
  (let ((let233 (ff.mul let232 let230)))
  (let ((let234 (= let233 let174)))
  (let ((let235 (ff.mul let78 let63)))
  (let ((let236 (= let235 let143)))
  (let ((let237 (ff.add let10 let155 let7)))
  (let ((let238 (ff.mul let78 let237)))
  (let ((let239 (= let238 let152)))
  (let ((let240 mul_n40_alt))
  (let ((let241 mul_n13_alt))
  (let ((let242 (ff.add let49 let43 let28 let241 let26 let78 let145 let240 let61 let95 let126 let42 let1)))
  (let ((let243 (ff.mul let10 let242)))
  (let ((let244 (= let243 let0)))
  (let ((let245 (ff.add let96 let33)))
  (let ((let246 is_zero_inv_n47_alt))
  (let ((let247 (ff.mul let246 let242)))
  (let ((let248 (= let247 let245)))
  (let ((let249 (ff.mul let144 let113)))
  (let ((let250 (= let249 let78)))
  (let ((let251 mul_n24_alt))
  (let ((let252 (ff.mul let251 let7)))
  (let ((let253 (ff.add let252 let33)))
  (let ((let254 (ff.mul let230 let253)))
  (let ((let255 (= let254 let113)))
  (let ((let256 (ff.add let42 let43 let26 let24 let7)))
  (let ((let257 (ff.add let4 let9 let23 let33)))
  (let ((let258 (ff.mul let257 let256)))
  (let ((let259 (= let258 let94)))
  (let ((let260 (ff.add let145 let33)))
  (let ((let261 (ff.mul let260 let46)))
  (let ((let262 (= let261 let24)))
  (let ((let263 (ff.add let127 let26 let42)))
  (let ((let264 (ff.add let69 let20)))
  (let ((let265 (ff.mul let264 let263)))
  (let ((let266 (= let265 let13)))
  (let ((let267 (ff.add let9 let33)))
  (let ((let268 (ff.mul let26 let267)))
  (let ((let269 (= let268 let126)))
  (let ((let270 (ff.add let12 let33)))
  (let ((let271 (ff.mul let270 let209)))
  (let ((let272 (= let271 let240)))
  (let ((let273 (ff.mul let251 let92)))
  (let ((let274 (= let273 let11)))
  (let ((let275 a_n0_alt))
  (let ((let276 (ff.mul let275 let7)))
  (let ((let277 (ff.add let276 let33)))
  (let ((let278 (ff.mul let264 let277)))
  (let ((let279 (= let278 let92)))
  (let ((let280 (ff.mul let46 let7)))
  (let ((let281 (ff.add let280 let33)))
  (let ((let282 (ff.mul let281 let28)))
  (let ((let283 (= let282 let209)))
  (let ((let284 mul_n15_alt))
  (let ((let285 (ff.add let74 let16 let284 let27 let205 let33)))
  (let ((let286 (ff.mul let46 let285)))
  (let ((let287 (= let286 let0)))
  (let ((let288 is_zero_inv_n35_alt))
  (let ((let289 (ff.mul let288 let285)))
  (let ((let290 (= let289 let281)))
  (let ((let291 (ff.mul let65 let260)))
  (let ((let292 (= let291 let60)))
  (let ((let293 (ff.mul let205 let7)))
  (let ((let294 e_n2_alt))
  (let ((let295 (ff.add let275 let48 let294 let207 let29 let293 let1)))
  (let ((let296 (ff.mul let63 let295)))
  (let ((let297 (= let296 let0)))
  (let ((let298 is_zero_inv_n32_alt))
  (let ((let299 (ff.mul let298 let295)))
  (let ((let300 (= let299 let65)))
  (let ((let301 (ff.mul let206 let232)))
  (let ((let302 (= let301 let207)))
  (let ((let303 (ff.add let136 let33)))
  (let ((let304 b_n6_alt))
  (let ((let305 (ff.mul let304 let303)))
  (let ((let306 (= let305 let112)))
  (let ((let307 (ff.add let136 let28 let18 let135 let8 let22 let7)))
  (let ((let308 (ff.mul let260 let307)))
  (let ((let309 (= let308 let48)))
  (let ((let310 (ff.mul let22 let54)))
  (let ((let311 (ff.mul let8 let54)))
  (let ((let312 (ff.mul let4 let1)))
  (let ((let313 (ff.add let312 let311 let310 let1)))
  (let ((let314 (ff.mul let313 let20)))
  (let ((let315 (= let314 let18)))
  (let ((let316 (ff.mul let173 let253)))
  (let ((let317 (= let316 let144)))
  (let ((let318 (ff.mul let20 let1)))
  (let ((let319 (ff.mul let69 let1)))
  (let ((let320 (ff.add let319 let318)))
  (let ((let321 (ff.mul let320 let257)))
  (let ((let322 (= let321 let80)))
  (let ((let323 is_zero_n22_alt))
  (let ((let324 (ff.mul let323 let7)))
  (let ((let325 (ff.add let136 let324 let33)))
  (let ((let326 (ff.mul let294 let325)))
  (let ((let327 (= let326 let69)))
  (let ((let328 (ff.add let27 let16 let33)))
  (let ((let329 (ff.mul let169 let328)))
  (let ((let330 (= let329 let251)))
  (let ((let331 (ff.add let324 let33)))
  (let ((let332 (ff.mul let331 let241)))
  (let ((let333 (= let332 let28)))
  (let ((let334 (ff.add let275 let8 let304 let205)))
  (let ((let335 (ff.mul let323 let334)))
  (let ((let336 (= let335 let0)))
  (let ((let337 is_zero_inv_n21_alt))
  (let ((let338 (ff.mul let337 let334)))
  (let ((let339 (= let338 let331)))
  (let ((let340 (ff.mul let328 let201)))
  (let ((let341 (= let340 let155)))
  (let ((let342 (ff.add let26 let294 let7)))
  (let ((let343 (ff.mul let219 let342)))
  (let ((let344 (= let343 let16)))
  (let ((let345 (ff.mul let26 let241)))
  (let ((let346 (= let345 let201)))
  (let ((let347 (ff.mul let284 let1)))
  (let ((let348 f_n1_alt))
  (let ((let349 (ff.mul let348 let1)))
  (let ((let350 (ff.mul let230 let7)))
  (let ((let351 (ff.add let350 let349 let22 let74 let20 let347 let304 let33)))
  (let ((let352 (ff.mul let26 let351)))
  (let ((let353 (= let352 let0)))
  (let ((let354 is_zero_inv_n16_alt))
  (let ((let355 (ff.mul let354 let351)))
  (let ((let356 (= let355 let219)))
  (let ((let357 mul_n14_alt))
  (let ((let358 (ff.mul let357 let74)))
  (let ((let359 (= let358 let284)))
  (let ((let360 (ff.mul let348 let8)))
  (let ((let361 (= let360 let357)))
  (let ((let362 (ff.add let135 let8 let22)))
  (let ((let363 (ff.mul let22 let362)))
  (let ((let364 (= let363 let241)))
  (let ((let365 (ff.mul let22 let1)))
  (let ((let366 (ff.mul let365 let8)))
  (let ((let367 (= let366 let4)))
  (let ((let368 (ff.add let350 let33)))
  (let ((let369 (ff.mul let368 let205)))
  (let ((let370 (= let369 let22)))
  (let ((let371 (ff.mul let304 let7)))
  (let ((let372 (ff.add let371 let33)))
  (let ((let373 mul_n9_alt))
  (let ((let374 (ff.mul let373 let372)))
  (let ((let375 (= let374 let230)))
  (let ((let376 (ff.mul let294 let7)))
  (let ((let377 (ff.add let376 let33)))
  (let ((let378 (ff.mul let377 let277)))
  (let ((let379 (= let378 let373)))
  (let ((let380 (and let379 let375 let370 let367 let364 let361 let359 let356 let353 let346 let344 let341 let339 let336 let333 let330 let327 let322 let317 let315 let309 let306 let302 let300 let297 let292 let290 let287 let283 let279 let274 let272 let269 let266 let262 let259 let255 let250 let248 let244 let239 let236 let234 let229 let225 let221 let218 let213 let204 let200 let194 let190 let185 let178 let172 let168 let163 let158 let141 let134 let130 let122 let118 let109 let103 let99 let91 let86 let67 let58 let52 let41 let38)))
  (let ((let381 is_zero_n67))
  (let ((let382 mul_n70))
  (let ((let383 mul_n12))
  (let ((let384 is_zero_n59))
  (let ((let385 mul_n68))
  (let ((let386 c_n4))
  (let ((let387 (ff.mul let386 let7)))
  (let ((let388 is_zero_n48))
  (let ((let389 mul_n39))
  (let ((let390 (ff.mul let389 let7)))
  (let ((let391 mul_n42))
  (let ((let392 is_zero_n77))
  (let ((let393 mul_n80))
  (let ((let394 mul_n19))
  (let ((let395 mul_n57))
  (let ((let396 mul_n28))
  (let ((let397 (ff.mul let396 let7)))
  (let ((let398 h_n5))
  (let ((let399 mul_n69))
  (let ((let400 mul_n11))
  (let ((let401 (ff.mul let400 let7)))
  (let ((let402 mul_n43))
  (let ((let403 mul_n78))
  (let ((let404 is_zero_n17))
  (let ((let405 (ff.mul let404 let7)))
  (let ((let406 mul_n23))
  (let ((let407 (ff.mul let406 let7)))
  (let ((let408 mul_n64))
  (let ((let409 (ff.mul let408 let7)))
  (let ((let410 (ff.add let409 let407 let405 let403 let402 let401 let399 let398 let397 let395 let394 let393 let392 let391 let390 let388 let387 let385 let384 let383 let382 let381 let1)))
  (let ((let411 return_n7))
  (let ((let412 (ff.mul let411 let7)))
  (let ((let413 (ff.add let412 let33)))
  (let ((let414 (ff.mul let413 let410)))
  (let ((let415 (= let414 let0)))
  (let ((let416 is_zero_inv_n81))
  (let ((let417 (ff.mul let416 let410)))
  (let ((let418 (= let417 let411)))
  (let ((let419 (ff.mul let394 let7)))
  (let ((let420 (ff.mul let391 let7)))
  (let ((let421 is_zero_n56))
  (let ((let422 (ff.add let421 let420 let404 let419 let7)))
  (let ((let423 is_zero_n36))
  (let ((let424 mul_n79))
  (let ((let425 mul_n29))
  (let ((let426 (ff.mul let425 let7)))
  (let ((let427 (ff.add let426 let424 let423 let406 let7)))
  (let ((let428 (ff.mul let427 let422)))
  (let ((let429 (= let428 let393)))
  (let ((let430 (ff.add let425 let407 let33)))
  (let ((let431 (ff.mul let423 let54)))
  (let ((let432 (ff.add let431 let1)))
  (let ((let433 (ff.mul let432 let430)))
  (let ((let434 (= let433 let424)))
  (let ((let435 mul_n73))
  (let ((let436 mul_n34))
  (let ((let437 (ff.mul let436 let7)))
  (let ((let438 (ff.add let409 let388 let437 let407 let389 let435)))
  (let ((let439 is_zero_n33))
  (let ((let440 (ff.mul let439 let7)))
  (let ((let441 (ff.add let440 let33)))
  (let ((let442 (ff.mul let441 let438)))
  (let ((let443 (= let442 let403)))
  (let ((let444 mul_n25))
  (let ((let445 mul_n54))
  (let ((let446 mul_n60))
  (let ((let447 (ff.mul let446 let7)))
  (let ((let448 mul_n63))
  (let ((let449 g_n8))
  (let ((let450 (ff.mul let449 let7)))
  (let ((let451 is_zero_n75))
  (let ((let452 (ff.mul let451 let7)))
  (let ((let453 mul_n46))
  (let ((let454 (ff.mul let453 let7)))
  (let ((let455 mul_n26))
  (let ((let456 (ff.mul let455 let7)))
  (let ((let457 is_zero_n72))
  (let ((let458 (ff.mul let457 let7)))
  (let ((let459 (ff.add let395 let458 let456 let387 let454 let452 let401 let398 let450 let448 let447 let383 let445 let444 let68)))
  (let ((let460 (ff.mul let392 let459)))
  (let ((let461 (= let460 let0)))
  (let ((let462 (ff.mul let392 let7)))
  (let ((let463 (ff.add let462 let33)))
  (let ((let464 is_zero_inv_n76))
  (let ((let465 (ff.mul let464 let459)))
  (let ((let466 (= let465 let463)))
  (let ((let467 mul_n38))
  (let ((let468 (ff.mul let435 let7)))
  (let ((let469 mul_n44))
  (let ((let470 (ff.mul let469 let7)))
  (let ((let471 (ff.mul let388 let7)))
  (let ((let472 (ff.add let408 let471 let420 let406 let389 let404 let436 let470 let468 let467 let419)))
  (let ((let473 (ff.mul let451 let472)))
  (let ((let474 (= let473 let0)))
  (let ((let475 (ff.add let452 let33)))
  (let ((let476 is_zero_inv_n74))
  (let ((let477 (ff.mul let476 let472)))
  (let ((let478 (= let477 let475)))
  (let ((let479 (ff.mul let406 let1)))
  (let ((let480 (ff.mul let388 let54)))
  (let ((let481 (ff.mul let408 let1)))
  (let ((let482 (ff.add let481 let480 let479)))
  (let ((let483 (ff.mul let482 let436)))
  (let ((let484 (= let483 let435)))
  (let ((let485 (ff.mul let402 let7)))
  (let ((let486 mul_n30))
  (let ((let487 mul_n45))
  (let ((let488 (ff.mul let487 let7)))
  (let ((let489 mul_n53))
  (let ((let490 (ff.add let489 let488 let405 let486 let485 let110)))
  (let ((let491 (ff.mul let457 let490)))
  (let ((let492 (= let491 let0)))
  (let ((let493 (ff.add let458 let33)))
  (let ((let494 is_zero_inv_n71))
  (let ((let495 (ff.mul let494 let490)))
  (let ((let496 (= let495 let493)))
  (let ((let497 mul_n52))
  (let ((let498 (ff.mul let497 let7)))
  (let ((let499 (ff.add let498 let485 let33)))
  (let ((let500 mul_n41))
  (let ((let501 (ff.mul let500 let7)))
  (let ((let502 (ff.add let501 let33)))
  (let ((let503 (ff.mul let502 let499)))
  (let ((let504 (= let503 let382)))
  (let ((let505 (ff.mul let384 let7)))
  (let ((let506 (ff.add let505 let33)))
  (let ((let507 (ff.mul let482 let506)))
  (let ((let508 (= let507 let399)))
  (let ((let509 (ff.mul let383 let7)))
  (let ((let510 (ff.mul let398 let7)))
  (let ((let511 (ff.add let510 let396 let509 let386 let400)))
  (let ((let512 (ff.mul let395 let54)))
  (let ((let513 (ff.add let512 let1)))
  (let ((let514 (ff.mul let513 let511)))
  (let ((let515 (= let514 let385)))
  (let ((let516 (ff.mul let469 let54)))
  (let ((let517 mul_n50))
  (let ((let518 mul_n27))
  (let ((let519 (ff.mul let518 let7)))
  (let ((let520 is_zero_n62))
  (let ((let521 (ff.mul let520 let1)))
  (let ((let522 mul_n65))
  (let ((let523 (ff.mul let522 let7)))
  (let ((let524 (ff.mul let391 let54)))
  (let ((let525 (ff.mul let394 let54)))
  (let ((let526 mul_n49))
  (let ((let527 (ff.mul let526 let7)))
  (let ((let528 (ff.mul let404 let1)))
  (let ((let529 mul_n20))
  (let ((let530 (ff.add let456 let529 let528 let527 let401 let398 let444 let525 let524 let387 let523 let521 let519 let517 let516 let383 let1)))
  (let ((let531 (ff.mul let381 let530)))
  (let ((let532 (= let531 let0)))
  (let ((let533 (ff.mul let381 let7)))
  (let ((let534 (ff.add let533 let33)))
  (let ((let535 is_zero_inv_n66))
  (let ((let536 (ff.mul let535 let530)))
  (let ((let537 (= let536 let534)))
  (let ((let538 (ff.mul let448 let7)))
  (let ((let539 (ff.add let420 let538 let470 let404 let419)))
  (let ((let540 (ff.add let408 let471 let406)))
  (let ((let541 (ff.mul let540 let539)))
  (let ((let542 (= let541 let522)))
  (let ((let543 (ff.add let407 let33)))
  (let ((let544 (ff.mul let388 let1)))
  (let ((let545 (ff.mul let544 let543)))
  (let ((let546 (= let545 let408)))
  (let ((let547 (ff.add let398 let456 let383 let444 let387 let401 let33)))
  (let ((let548 mul_n51))
  (let ((let549 (ff.mul let548 let7)))
  (let ((let550 (ff.add let549 let33)))
  (let ((let551 (ff.mul let550 let547)))
  (let ((let552 (= let551 let448)))
  (let ((let553 (ff.mul let444 let7)))
  (let ((let554 (ff.mul let517 let7)))
  (let ((let555 (ff.mul let529 let7)))
  (let ((let556 (ff.add let455 let386 let555 let526 let400 let505 let510 let436 let554 let446 let553 let501 let509 let179)))
  (let ((let557 (ff.mul let520 let556)))
  (let ((let558 (= let557 let0)))
  (let ((let559 (ff.mul let520 let7)))
  (let ((let560 (ff.add let559 let33)))
  (let ((let561 is_zero_inv_n61))
  (let ((let562 (ff.mul let561 let556)))
  (let ((let563 (= let562 let560)))
  (let ((let564 (ff.mul let489 let7)))
  (let ((let565 (ff.add let564 let398 let456 let383 let444 let387 let401 let33)))
  (let ((let566 (ff.mul let430 let565)))
  (let ((let567 (= let566 let446)))
  (let ((let568 (ff.mul let467 let7)))
  (let ((let569 (ff.mul let395 let7)))
  (let ((let570 (ff.add let421 let569 let568 let549 let110)))
  (let ((let571 is_zero_inv_n58))
  (let ((let572 (ff.mul let571 let570)))
  (let ((let573 (= let572 let506)))
  (let ((let574 mul_n18))
  (let ((let575 (ff.add let488 let33)))
  (let ((let576 (ff.mul let575 let574)))
  (let ((let577 (= let576 let395)))
  (let ((let578 d_n3))
  (let ((let579 (ff.mul let578 let1)))
  (let ((let580 mul_n31))
  (let ((let581 (ff.mul let580 let54)))
  (let ((let582 mul_n37))
  (let ((let583 (ff.mul let486 let54)))
  (let ((let584 (ff.add let488 let453 let402 let583 let489 let582 let581 let445 let579 let110)))
  (let ((let585 (ff.mul let421 let584)))
  (let ((let586 (= let585 let0)))
  (let ((let587 (ff.mul let421 let7)))
  (let ((let588 (ff.add let587 let33)))
  (let ((let589 is_zero_inv_n55))
  (let ((let590 (ff.mul let589 let584)))
  (let ((let591 (= let590 let588)))
  (let ((let592 (ff.add let405 let33)))
  (let ((let593 (ff.mul let529 let592)))
  (let ((let594 (= let593 let445)))
  (let ((let595 (ff.mul let574 let7)))
  (let ((let596 (ff.add let595 let33)))
  (let ((let597 (ff.mul let596 let497)))
  (let ((let598 (= let597 let489)))
  (let ((let599 (ff.add let398 let397 let383 let387 let401 let33)))
  (let ((let600 (ff.add let405 let391 let394 let33)))
  (let ((let601 (ff.mul let600 let599)))
  (let ((let602 (= let601 let497)))
  (let ((let603 mul_n10))
  (let ((let604 (ff.mul let486 let7)))
  (let ((let605 (ff.add let604 let33)))
  (let ((let606 (ff.mul let605 let603)))
  (let ((let607 (= let606 let548)))
  (let ((let608 (ff.mul let453 let439)))
  (let ((let609 (= let608 let517)))
  (let ((let610 (ff.add let388 let529 let7)))
  (let ((let611 (ff.mul let453 let610)))
  (let ((let612 (= let611 let526)))
  (let ((let613 mul_n40))
  (let ((let614 mul_n13))
  (let ((let615 (ff.add let426 let420 let406 let614 let404 let453 let519 let613 let437 let470 let500 let419 let1)))
  (let ((let616 (ff.mul let388 let615)))
  (let ((let617 (= let616 let0)))
  (let ((let618 (ff.add let471 let33)))
  (let ((let619 is_zero_inv_n47))
  (let ((let620 (ff.mul let619 let615)))
  (let ((let621 (= let620 let618)))
  (let ((let622 (ff.mul let518 let487)))
  (let ((let623 (= let622 let453)))
  (let ((let624 mul_n24))
  (let ((let625 (ff.mul let624 let7)))
  (let ((let626 (ff.add let625 let33)))
  (let ((let627 (ff.mul let603 let626)))
  (let ((let628 (= let627 let487)))
  (let ((let629 (ff.add let419 let420 let404 let402 let7)))
  (let ((let630 (ff.add let383 let387 let401 let33)))
  (let ((let631 (ff.mul let630 let629)))
  (let ((let632 (= let631 let469)))
  (let ((let633 (ff.add let519 let33)))
  (let ((let634 (ff.mul let633 let423)))
  (let ((let635 (= let634 let402)))
  (let ((let636 (ff.add let501 let404 let419)))
  (let ((let637 (ff.add let444 let398)))
  (let ((let638 (ff.mul let637 let636)))
  (let ((let639 (= let638 let391)))
  (let ((let640 (ff.add let387 let33)))
  (let ((let641 (ff.mul let404 let640)))
  (let ((let642 (= let641 let500)))
  (let ((let643 (ff.add let390 let33)))
  (let ((let644 (ff.mul let643 let582)))
  (let ((let645 (= let644 let613)))
  (let ((let646 (ff.mul let624 let467)))
  (let ((let647 (= let646 let389)))
  (let ((let648 a_n0))
  (let ((let649 (ff.mul let648 let7)))
  (let ((let650 (ff.add let649 let33)))
  (let ((let651 (ff.mul let637 let650)))
  (let ((let652 (= let651 let467)))
  (let ((let653 (ff.mul let423 let7)))
  (let ((let654 (ff.add let653 let33)))
  (let ((let655 (ff.mul let654 let406)))
  (let ((let656 (= let655 let582)))
  (let ((let657 mul_n15))
  (let ((let658 (ff.add let449 let394 let657 let405 let578 let33)))
  (let ((let659 (ff.mul let423 let658)))
  (let ((let660 (= let659 let0)))
  (let ((let661 is_zero_inv_n35))
  (let ((let662 (ff.mul let661 let658)))
  (let ((let663 (= let662 let654)))
  (let ((let664 (ff.mul let441 let633)))
  (let ((let665 (= let664 let436)))
  (let ((let666 (ff.mul let578 let7)))
  (let ((let667 e_n2))
  (let ((let668 (ff.add let648 let425 let667 let580 let407 let666 let1)))
  (let ((let669 (ff.mul let439 let668)))
  (let ((let670 (= let669 let0)))
  (let ((let671 is_zero_inv_n32))
  (let ((let672 (ff.mul let671 let668)))
  (let ((let673 (= let672 let441)))
  (let ((let674 (ff.mul let579 let605)))
  (let ((let675 (= let674 let580)))
  (let ((let676 (ff.add let510 let33)))
  (let ((let677 b_n6))
  (let ((let678 (ff.mul let677 let676)))
  (let ((let679 (= let678 let486)))
  (let ((let680 (ff.add let510 let406 let396 let509 let386 let400 let7)))
  (let ((let681 (ff.mul let633 let680)))
  (let ((let682 (= let681 let425)))
  (let ((let683 (ff.mul let400 let54)))
  (let ((let684 (ff.mul let386 let54)))
  (let ((let685 (ff.mul let383 let1)))
  (let ((let686 (ff.add let685 let684 let683 let1)))
  (let ((let687 (ff.mul let686 let398)))
  (let ((let688 (= let687 let396)))
  (let ((let689 (ff.mul let547 let626)))
  (let ((let690 (= let689 let518)))
  (let ((let691 (ff.mul let398 let1)))
  (let ((let692 (ff.mul let444 let1)))
  (let ((let693 (ff.add let692 let691)))
  (let ((let694 (ff.mul let693 let630)))
  (let ((let695 (= let694 let455)))
  (let ((let696 is_zero_n22))
  (let ((let697 (ff.mul let696 let7)))
  (let ((let698 (ff.add let510 let697 let33)))
  (let ((let699 (ff.mul let667 let698)))
  (let ((let700 (= let699 let444)))
  (let ((let701 (ff.add let405 let394 let33)))
  (let ((let702 (ff.mul let543 let701)))
  (let ((let703 (= let702 let624)))
  (let ((let704 (ff.add let697 let33)))
  (let ((let705 (ff.mul let704 let614)))
  (let ((let706 (= let705 let406)))
  (let ((let707 (ff.add let648 let386 let677 let578)))
  (let ((let708 (ff.mul let696 let707)))
  (let ((let709 (= let708 let0)))
  (let ((let710 is_zero_inv_n21))
  (let ((let711 (ff.mul let710 let707)))
  (let ((let712 (= let711 let704)))
  (let ((let713 (ff.mul let701 let574)))
  (let ((let714 (= let713 let529)))
  (let ((let715 (ff.add let404 let667 let7)))
  (let ((let716 (ff.mul let592 let715)))
  (let ((let717 (= let716 let394)))
  (let ((let718 (ff.mul let404 let614)))
  (let ((let719 (= let718 let574)))
  (let ((let720 (ff.mul let657 let1)))
  (let ((let721 f_n1))
  (let ((let722 (ff.mul let721 let1)))
  (let ((let723 (ff.mul let603 let7)))
  (let ((let724 (ff.add let723 let722 let400 let449 let398 let720 let677 let33)))
  (let ((let725 (ff.mul let404 let724)))
  (let ((let726 (= let725 let0)))
  (let ((let727 is_zero_inv_n16))
  (let ((let728 (ff.mul let727 let724)))
  (let ((let729 (= let728 let592)))
  (let ((let730 mul_n14))
  (let ((let731 (ff.mul let730 let449)))
  (let ((let732 (= let731 let657)))
  (let ((let733 (ff.mul let721 let386)))
  (let ((let734 (= let733 let730)))
  (let ((let735 (ff.add let509 let386 let400)))
  (let ((let736 (ff.mul let400 let735)))
  (let ((let737 (= let736 let614)))
  (let ((let738 (ff.mul let400 let1)))
  (let ((let739 (ff.mul let738 let386)))
  (let ((let740 (= let739 let383)))
  (let ((let741 (ff.add let723 let33)))
  (let ((let742 (ff.mul let741 let578)))
  (let ((let743 (= let742 let400)))
  (let ((let744 (ff.mul let677 let7)))
  (let ((let745 (ff.add let744 let33)))
  (let ((let746 mul_n9))
  (let ((let747 (ff.mul let746 let745)))
  (let ((let748 (= let747 let603)))
  (let ((let749 (ff.mul let667 let7)))
  (let ((let750 (ff.add let749 let33)))
  (let ((let751 (ff.mul let750 let650)))
  (let ((let752 (= let751 let746)))
  (let ((let753 (and let752 let748 let743 let740 let737 let734 let732 let729 let726 let719 let717 let714 let712 let709 let706 let703 let700 let695 let690 let688 let682 let679 let675 let673 let670 let665 let663 let660 let656 let652 let647 let645 let642 let639 let635 let632 let628 let623 let621 let617 let612 let609 let607 let602 let598 let594 let591 let586 let577 let573 let567 let563 let558 let552 let546 let542 let537 let532 let515 let508 let504 let496 let492 let484 let478 let474 let466 let461 let443 let434 let429 let418 let415)))
  (let ((let754 (= let411 let34)))
  (let ((let755 (not let754)))
  (let ((let756 (= let578 let205)))
  (let ((let757 (= let398 let20)))
  (let ((let758 (= let721 let348)))
  (let ((let759 (= let386 let8)))
  (let ((let760 (= let449 let74)))
  (let ((let761 (= let677 let304)))
  (let ((let762 (= let667 let294)))
  (let ((let763 (= let648 let275)))
  (let ((let764 (and let763 let762 let761 let760 let759 let758 let757 let756)))
  (let ((let765 (and let764 let755 let753 let380)))
  let765
))))))))))))))))))))))))))))))))))))))))))))))))))))))))))))))))))))))))))))))))))))))))))))))))))))))))))))))))))))))))))))))))))))))))))))))))))))))))))))))))))))))))))))))))))))))))))))))))))))))))))))))))))))))))))))))))))))))))))))))))))))))))))))))))))))))))))))))))))))))))))))))))))))))))))))))))))))))))))))))))))))))))))))))))))))))))))))))))))))))))))))))))))))))))))))))))))))))))))))))))))))))))))))))))))))))))))))))))))))))))))))))))))))))))))))))))))))))))))))))))))))))))))))))))))))))))))))))))))))))))))))))))))))))))))))))))))))))))))))))))))))))))))))))))))))))))))))))))))))))))))))))))))))))))))))))))))))))))))))))))))))))))))))))))))))))))))))))))))))))))))))))))))))))))))))))))))))))))))))))))))))))))))))))))))))))))))))))))))))))))))))))
)
(check-sat)
